p cnf 50 150
1 -50 -32 0
1 -50 -27 0
1 -50 33 0
1 -49 -37 0
1 -49 -35 0
1 -49 -22 0
1 -48 -14 0
1 -48 8 0
1 -48 34 0
1 -47 -42 0
1 -47 -13 0
1 -47 27 0
1 -46 -36 0
1 -46 6 0
1 -46 16 0
1 -45 -43 0
1 -45 -39 0
1 -45 46 0
1 -44 -6 0
1 -44 24 0
1 -44 37 0
1 -43 18 0
1 -43 48 0
1 -42 -41 0
1 -42 26 0
1 -41 -21 0
1 -41 -15 0
1 -40 3 0
1 -40 6 0
1 -40 20 0
1 -39 -34 0
1 -39 33 0
1 -38 -26 0
1 -38 -2 0
1 -38 24 0
1 -37 -12 0
1 -37 39 0
1 -36 -14 0
1 -36 45 0
1 -35 21 0
1 -35 45 0
1 -34 8 0
1 -34 29 0
1 -33 -12 0
1 -33 20 0
1 -33 26 0
1 -32 3 0
1 -32 31 0
1 -31 -23 0
1 -31 -18 0
1 -31 32 0
1 -30 -13 0
1 -30 -9 0
1 -30 44 0
1 -29 -27 0
1 -29 13 0
1 -29 28 0
1 -28 -3 0
1 -28 2 0
1 -28 36 0
1 -27 -18 0
1 -26 -7 0
1 -26 12 0
1 -25 -20 0
1 -25 -12 0
1 -25 41 0
1 -24 7 0
1 -24 44 0
1 -24 48 0
1 -23 15 0
1 -23 31 0
1 -22 15 0
1 -22 27 0
1 -21 23 0
1 -21 50 0
1 -20 -10 0
1 -20 -8 0
1 -19 -8 0
1 -19 36 0
1 -19 40 0
1 -18 49 0
1 -17 -14 0
1 -17 -1 0
1 -17 25 0
1 -16 -6 0
1 -16 22 0
1 -16 41 0
1 -15 9 0
1 -15 43 0
1 -13 8 0
1 -11 -9 0
1 -11 -6 0
1 -11 45 0
1 -10 -5 0
1 -10 46 0
1 -9 -7 0
1 -8 33 0
1 -7 30 0
1 -5 19 0
1 -5 32 0
1 -4 7 0
1 -4 18 0
1 -4 30 0
1 -3 4 0
1 -3 14 0
1 -2 10 0
1 -2 38 0
1 -1 6 0
1 -1 21 0
1 1 17 0
1 1 29 0
1 1 40 0
1 2 22 0
1 2 29 0
1 3 7 0
1 4 26 0
1 4 34 0
1 5 9 0
1 5 17 0
1 5 31 0
1 9 19 0
1 10 30 0
1 10 42 0
1 11 37 0
1 11 42 0
1 11 47 0
1 12 35 0
1 12 50 0
1 13 19 0
1 13 47 0
1 14 18 0
1 14 23 0
1 15 23 0
1 16 24 0
1 16 43 0
1 17 34 0
1 20 35 0
1 21 40 0
1 22 27 0
1 25 28 0
1 25 39 0
1 28 49 0
1 32 42 0
1 35 47 0
1 36 50 0
1 37 39 0
1 38 43 0
1 38 49 0
1 41 46 0
1 44 48 0
